c WMC file for PBN EPFL/random_control/ctrl_distill_EPFL/random_control/ctrl_miter written by probABC
p cnf 210 186
13 -4 -5 0
-13 4 0
-13 5 0
21 4 5 0
-21 -4 0
-21 -5 0
30 4 21 0
-30 -4 0
-30 -21 0
34 4 -5 0
-34 -4 0
-34 5 0
35 4 34 0
-35 -4 0
-35 -34 0
41 -4 13 0
-41 4 0
-41 -13 0
42 -1 41 0
-42 1 0
-42 -41 0
57 1 -4 0
-57 -1 0
-57 4 0
58 -5 -6 0
-58 5 0
-58 6 0
59 -57 -58 0
-59 57 0
-59 58 0
60 -4 7 0
-60 4 0
-60 -7 0
61 13 -60 0
-61 -13 0
-61 60 0
62 -4 6 0
-62 4 0
-62 -6 0
63 13 -62 0
-63 -13 0
-63 62 0
64 -4 -6 0
-64 4 0
-64 6 0
65 63 64 0
-65 -63 0
-65 -64 0
66 -7 65 0
-66 7 0
-66 -65 0
67 61 66 0
-67 -61 0
-67 -66 0
68 -1 67 0
-68 1 0
-68 -67 0
69 59 68 0
-69 -59 0
-69 -68 0
70 -2 69 0
-70 2 0
-70 -69 0
71 3 70 0
-71 -3 0
-71 -70 0
72 -1 30 0
-72 1 0
-72 -30 0
73 -1 72 0
-73 1 0
-73 -72 0
74 -3 73 0
-74 3 0
-74 -73 0
75 -8 74 0
-75 8 0
-75 -74 0
76 8 -74 0
-76 -8 0
-76 74 0
77 75 76 0
-77 -75 0
-77 -76 0
78 71 -77 0
-78 -71 0
-78 77 0
119 1 35 0
-119 -1 0
-119 -35 0
120 1 119 0
-120 -1 0
-120 -119 0
121 2 120 0
-121 -2 0
-121 -120 0
122 2 121 0
-122 -2 0
-122 -121 0
123 -9 122 0
-123 9 0
-123 -122 0
124 9 -122 0
-124 -9 0
-124 122 0
125 123 124 0
-125 -123 0
-125 -124 0
126 3 -125 0
-126 -3 0
-126 125 0
127 3 126 0
-127 -3 0
-127 -126 0
147 -1 42 0
-147 1 0
-147 -42 0
152 -2 147 0
-152 2 0
-152 -147 0
153 -2 152 0
-153 2 0
-153 -152 0
154 -3 153 0
-154 3 0
-154 -153 0
155 -10 154 0
-155 10 0
-155 -154 0
156 10 -154 0
-156 -10 0
-156 154 0
157 155 156 0
-157 -155 0
-157 -156 0
158 -3 -157 0
-158 3 0
-158 157 0
195 71 74 0
-195 -71 0
-195 -74 0
196 3 122 0
-196 -3 0
-196 -122 0
197 3 196 0
-197 -3 0
-197 -196 0
198 -3 154 0
-198 3 0
-198 -154 0
199 78 -195 0
-199 -78 0
-199 195 0
200 -78 195 0
-200 78 0
-200 -195 0
201 199 200 0
-201 -199 0
-201 -200 0
202 127 -197 0
-202 -127 0
-202 197 0
203 -127 197 0
-203 127 0
-203 -197 0
204 202 203 0
-204 -202 0
-204 -203 0
205 158 -198 0
-205 -158 0
-205 198 0
206 -158 198 0
-206 158 0
-206 -198 0
207 205 206 0
-207 -205 0
-207 -206 0
208 -201 -204 0
-208 201 0
-208 204 0
209 -207 -208 0
-209 207 0
-209 208 0
11 209 0
-11 -209 0
11 0
w 1 0.500000
w 2 0.500000
w 3 0.500000
w 4 0.500000
w 5 0.500000
w 6 0.500000
w 7 0.500000
w 8 0.125000
w 9 0.125000
w 10 0.125000
w 13 -1
w 21 -1
w 30 -1
w 34 -1
w 35 -1
w 41 -1
w 42 -1
w 57 -1
w 58 -1
w 59 -1
w 60 -1
w 61 -1
w 62 -1
w 63 -1
w 64 -1
w 65 -1
w 66 -1
w 67 -1
w 68 -1
w 69 -1
w 70 -1
w 71 -1
w 72 -1
w 73 -1
w 74 -1
w 75 -1
w 76 -1
w 77 -1
w 78 -1
w 119 -1
w 120 -1
w 121 -1
w 122 -1
w 123 -1
w 124 -1
w 125 -1
w 126 -1
w 127 -1
w 147 -1
w 152 -1
w 153 -1
w 154 -1
w 155 -1
w 156 -1
w 157 -1
w 158 -1
w 195 -1
w 196 -1
w 197 -1
w 198 -1
w 199 -1
w 200 -1
w 201 -1
w 202 -1
w 203 -1
w 204 -1
w 205 -1
w 206 -1
w 207 -1
w 208 -1
w 209 -1
w 11 -1
